proyfinal/src/viki/013/experimentInOfficeAgust.take6.output/7226f87a-237b-401d-bde2-0d2382b91ca4.als.dat
{'cnf.clauses': '118081',
 'cnf.totvars': '69608',
 'conflict literals': '4',
 'conflicts': '4',
 'decisions': '608',
 'memused.mb': '15.03',
 'outcome': 'UNSAT',
 'propagations': '20382',
 'restarts': '1',
 'solver.msecs': 39,
 'task.msecs': 91}
