proyfinal/src/viki/013/experimentInOfficeAgust.take6.output/7226f87a-237b-401d-bde2-0d2382b91ca4.als.out
Reading from standard input... Use '--help' for help.
============================[ Problem Statistics ]=============================
|                                                                             |
|  Number of variables:         69608                                         |
|  Number of clauses:          118081                                         |
|  Parse time:                   0.03 s                                       |
|                                                                             |
============================[ Search Statistics ]==============================
| Conflicts |          ORIGINAL         |          LEARNT          | Progress |
|           |    Vars  Clauses Literals |    Limit  Clauses Lit/Cl |          |
===============================================================================
===============================================================================
restarts              : 1
conflicts             : 4              (101 /sec)
decisions             : 608            (0.00 % random) (15424 /sec)
propagations          : 20382          (517073 /sec)
conflict literals     : 4              (0.00 % deleted)
Memory used           : 15.03 MB
CPU time              : 0.039418 s

UNSATISFIABLE
